db/data/138452170216000243482512129073130032658.z3.out
sat
-------------------
2.517676996
